\ Model _copy
\ LP format - for model browsing. Use MPS format to capture full model detail.
Minimize
  0 node_1_0 + 0 node_3_0
Subject To
 R0: 10000 node_2_0 - contract_0_0 <= 9995
 R4: contract_0_0 + 10000 node_4_0 <= 10000.9999
 R6: node_0_0 = 1
Bounds
 contract_0_0 free
Binaries
 node_0_0 node_1_0 node_2_0 node_3_0 node_4_0
General Constraints
 GC0: node_1_0 = AND ( node_2_0 , node_3_0 )
 GC1: node_0_0 = AND ( node_1_0 , node_4_0 )
End
